NAME: instance_694
TYPE: TSP
DIMENSION: 20
EDGE_WEIGHT_TYPE: EUC_2D
NODE_COORD_SECTION
0 92.76 22.19
1 8.41 94.15
2 95.78 32.55
3 94.83 75.34
4 93.70 38.13
5 60.80 33.54
6 21.93 87.76
7 88.26 5.29
8 88.14 7.75
9 96.61 61.83
10 92.49 66.20
11 56.39 26.69
12 3.98 33.89
13 32.52 50.40
14 11.85 73.07
15 98.59 46.21
16 57.69 90.42
17 44.55 43.75
18 22.92 48.16
19 70.93 46.29
EOF
